c description: Random 3-CNF over 20 variables and 85 clauses
c generator: CNFgen (0.9.2)
c copyright: (C) 2012-2022 Massimo Lauria <massimo.lauria@uniroma1.it>
c url: https://massimolauria.net/cnfgen
c command line: cnfgen --output CNF_4.28/20_bit_85_392.cnf randkcnf 3 20 85
c
p cnf 20 85
-2 15 19 0
-2 3 18 0
8 11 12 0
11 -13 -20 0
-9 13 -15 0
5 -17 -19 0
-8 -14 19 0
8 -11 -19 0
9 -13 15 0
4 -7 12 0
2 -12 -15 0
7 11 13 0
-2 17 19 0
4 -5 -12 0
-1 11 -17 0
2 10 16 0
1 6 -20 0
4 12 14 0
-5 -12 20 0
-1 10 -18 0
9 -19 20 0
9 13 19 0
-5 -9 13 0
-5 -10 19 0
-12 -15 19 0
-1 3 -6 0
7 10 15 0
-9 12 -14 0
1 9 17 0
-5 11 12 0
-9 11 -16 0
1 -4 17 0
-3 10 -12 0
-5 10 -15 0
2 -6 -8 0
6 9 -17 0
-16 -19 20 0
5 -10 16 0
3 -7 10 0
12 16 -19 0
10 -13 -14 0
-3 11 -20 0
6 9 -12 0
14 -15 -16 0
-4 -13 -15 0
6 -7 -11 0
-7 8 16 0
-1 11 -18 0
6 -10 -19 0
3 10 -17 0
-5 -9 20 0
-9 -18 20 0
-7 -10 17 0
10 -11 -12 0
-8 -10 12 0
-5 -12 -16 0
4 -5 -6 0
-4 6 19 0
-14 15 -16 0
-2 5 -8 0
-13 -17 19 0
6 8 16 0
5 -6 -11 0
-4 -13 -20 0
6 -16 -18 0
11 14 20 0
2 13 19 0
6 -8 16 0
-4 14 -15 0
4 -9 -14 0
13 18 -19 0
9 -15 20 0
1 4 5 0
7 -9 17 0
-12 15 -19 0
-1 -3 -17 0
4 15 18 0
1 -4 -15 0
-3 -4 -12 0
-4 -8 -10 0
-5 -11 14 0
-6 12 19 0
7 -15 -16 0
-12 -13 -18 0
-3 -6 -12 0
